Normalized Data/p03_21_normalized_splitx10_0.vrp
NAME:p03_21_NORMALIZED_splitx10_
BEST_KNOWN: 0
COMMENT: 0
DIMENSION: 381
CAPACITY: 1000
EDGE_WEIGHT_FORMAT: FUNCTION
EDGE_WEIGHT_TYPE: EXACT_2D
NODE_COORD_SECTION
1 0.00000 0.00000
2 21 -7
3 48 -18
4 48 -18
5 48 -18
6 48 -18
7 48 -18
8 48 -18
9 44 9
10 44 9
11 -25 -47
12 -25 -47
13 48 5
14 48 5
15 48 5
16 48 5
17 -6 -47
18 -6 -47
19 -6 -47
20 -20 -2
21 -30 -8
22 14 -34
23 14 -34
24 14 -34
25 14 -34
26 14 -34
27 14 -34
28 14 -34
29 48 2
30 48 2
31 48 2
32 24 -15
33 24 -15
34 -14 15
35 -14 15
36 39 35
37 39 35
38 39 35
39 39 35
40 39 35
41 -9 -30
42 -9 -30
43 -9 -30
44 -49 16
45 -49 16
46 -49 16
47 -49 16
48 -49 16
49 -11 48
50 -11 48
51 29 -44
52 29 -44
53 18 47
54 18 47
55 18 47
56 5 -41
57 5 -41
58 5 -41
59 5 -41
60 5 -41
61 5 -41
62 17 14
63 17 14
64 17 14
65 17 14
66 20 24
67 3 46
68 3 46
69 3 46
70 3 46
71 3 46
72 3 46
73 -47 -18
74 -47 -18
75 2 -45
76 2 -45
77 2 -45
78 -1 -26
79 -1 -26
80 26 46
81 26 46
82 26 46
83 38 -2
84 38 -2
85 38 -2
86 38 -2
87 38 -2
88 38 -2
89 -33 40
90 -33 40
91 -33 40
92 38 37
93 38 37
94 38 37
95 38 37
96 10 1
97 10 1
98 10 1
99 10 1
100 2 39
101 2 39
102 2 39
103 2 39
104 6 35
105 6 35
106 6 35
107 49 43
108 49 43
109 49 43
110 49 43
111 49 43
112 -7 -10
113 -7 -10
114 -36 -7
115 -36 -7
116 -5 40
117 -5 40
118 -16 -37
119 -16 -37
120 -16 -37
121 49 20
122 49 20
123 49 20
124 -45 -26
125 -45 -26
126 -45 -26
127 -45 -26
128 -34 18
129 -34 18
130 -44 20
131 -44 20
132 -42 2
133 -42 2
134 -42 2
135 -46 -25
136 -46 -25
137 -11 -1
138 -11 -1
139 -11 -1
140 -11 -1
141 35 -24
142 35 -24
143 35 -24
144 35 -24
145 35 -24
146 -42 -26
147 -42 -26
148 -42 -26
149 -42 -26
150 -46 -21
151 -46 -21
152 -46 -21
153 -46 -21
154 1 -8
155 1 -8
156 1 -8
157 1 -8
158 1 -8
159 -29 36
160 -29 36
161 -29 36
162 -29 36
163 44 19
164 44 19
165 44 19
166 44 19
167 9 0
168 9 0
169 9 0
170 9 0
171 9 0
172 9 0
173 9 0
174 7 38
175 7 38
176 -8 -43
177 -8 -43
178 47 -3
179 47 -3
180 47 -3
181 47 -3
182 47 -3
183 47 -3
184 19 28
185 19 28
186 19 28
187 19 28
188 19 28
189 19 28
190 -19 3
191 -19 3
192 -19 3
193 -19 3
194 -19 3
195 -50 -21
196 -50 -21
197 -50 -21
198 -50 -21
199 -50 -21
200 -50 -21
201 -3 -29
202 -3 -29
203 -3 -29
204 -3 -29
205 -3 -29
206 50 -8
207 50 -8
208 50 -8
209 50 -8
210 50 -8
211 50 -8
212 12 -28
213 12 -28
214 12 -28
215 1 -41
216 1 -41
217 44 -8
218 44 -8
219 34 -42
220 34 -42
221 34 -42
222 34 -42
223 -48 -30
224 -48 -30
225 -48 -30
226 -48 -30
227 -48 -30
228 -16 -25
229 -16 -25
230 -16 -25
231 -16 -25
232 -16 -25
233 -16 -25
234 41 31
235 41 31
236 41 31
237 41 31
238 41 31
239 41 31
240 26 25
241 26 25
242 26 25
243 26 25
244 26 25
245 -7 8
246 -7 8
247 -7 8
248 -7 8
249 -7 8
250 -46 -23
251 -46 -23
252 -46 -23
253 -46 -23
254 -46 -23
255 50 -7
256 50 -7
257 50 -7
258 50 -7
259 50 -7
260 50 -7
261 45 -29
262 45 -29
263 45 -29
264 45 -29
265 45 -29
266 45 -29
267 45 -29
268 8 24
269 8 24
270 46 10
271 46 10
272 46 10
273 46 10
274 46 10
275 46 10
276 46 10
277 -24 -41
278 -24 -41
279 -24 -41
280 6 -44
281 6 -44
282 6 -44
283 6 -44
284 6 -44
285 6 -44
286 2 43
287 2 43
288 2 43
289 41 10
290 41 10
291 41 10
292 41 10
293 41 10
294 -30 19
295 -30 19
296 13 23
297 13 23
298 13 23
299 13 23
300 13 23
301 10 47
302 10 47
303 8 49
304 8 49
305 8 49
306 8 49
307 8 49
308 8 49
309 8 49
310 -39 32
311 -39 32
312 -39 32
313 -39 32
314 -25 -6
315 -25 -6
316 -25 -6
317 -25 -6
318 23 -39
319 23 -39
320 -26 -1
321 -26 -1
322 -26 -1
323 -26 -1
324 -26 -1
325 -26 -1
326 13 -31
327 13 -31
328 13 -31
329 13 -31
330 13 -31
331 -11 18
332 -11 18
333 -11 18
334 38 -30
335 38 -30
336 38 -30
337 38 -30
338 38 -30
339 38 35
340 38 35
341 38 35
342 38 35
343 18 -29
344 18 -29
345 18 -29
346 -28 0
347 13 -41
348 13 -41
349 13 -41
350 13 -41
351 13 -41
352 13 -41
353 46 -17
354 46 -17
355 46 -17
356 46 -17
357 46 -17
358 13 24
359 13 24
360 -5 34
361 -5 34
362 -5 34
363 -5 34
364 -5 34
365 -23 38
366 -23 38
367 -23 38
368 17 -7
369 17 -7
370 17 -7
371 18 38
372 18 38
373 18 38
374 18 38
375 18 38
376 20 50
377 20 50
378 43 -25
379 43 -25
380 43 -25
381 43 -25
DEMAND_SECTION
1 0
2 200
3 200
4 100
5 50
6 10
7 10
8 10
9 200
10 10
11 200
12 10
13 200
14 200
15 10
16 10
17 200
18 10
19 10
20 200
21 200
22 200
23 200
24 50
25 10
26 10
27 10
28 10
29 100
30 10
31 10
32 200
33 200
34 100
35 50
36 100
37 50
38 10
39 10
40 10
41 200
42 200
43 100
44 100
45 50
46 10
47 10
48 10
49 200
50 200
51 200
52 50
53 200
54 200
55 10
56 100
57 50
58 10
59 10
60 10
61 10
62 100
63 10
64 10
65 10
66 200
67 100
68 50
69 10
70 10
71 10
72 10
73 200
74 10
75 100
76 50
77 10
78 100
79 50
80 200
81 200
82 50
83 200
84 100
85 50
86 10
87 10
88 10
89 200
90 200
91 10
92 200
93 100
94 50
95 10
96 100
97 50
98 10
99 10
100 200
101 100
102 10
103 10
104 200
105 50
106 10
107 200
108 50
109 10
110 10
111 10
112 100
113 50
114 100
115 50
116 200
117 100
118 200
119 200
120 100
121 200
122 200
123 50
124 200
125 50
126 10
127 10
128 100
129 50
130 200
131 50
132 200
133 200
134 10
135 200
136 100
137 100
138 10
139 10
140 10
141 200
142 200
143 10
144 10
145 10
146 100
147 10
148 10
149 10
150 200
151 200
152 50
153 10
154 200
155 100
156 10
157 10
158 10
159 200
160 100
161 50
162 10
163 200
164 10
165 10
166 10
167 200
168 200
169 50
170 10
171 10
172 10
173 10
174 200
175 10
176 200
177 10
178 100
179 50
180 10
181 10
182 10
183 10
184 200
185 100
186 50
187 10
188 10
189 10
190 100
191 10
192 10
193 10
194 10
195 200
196 200
197 50
198 10
199 10
200 10
201 100
202 50
203 10
204 10
205 10
206 200
207 100
208 10
209 10
210 10
211 10
212 100
213 50
214 10
215 200
216 10
217 100
218 50
219 200
220 200
221 50
222 10
223 200
224 200
225 50
226 10
227 10
228 200
229 200
230 10
231 10
232 10
233 10
234 200
235 100
236 10
237 10
238 10
239 10
240 200
241 50
242 10
243 10
244 10
245 200
246 50
247 10
248 10
249 10
250 100
251 50
252 10
253 10
254 10
255 200
256 100
257 10
258 10
259 10
260 10
261 200
262 200
263 50
264 10
265 10
266 10
267 10
268 200
269 10
270 200
271 200
272 50
273 10
274 10
275 10
276 10
277 200
278 50
279 10
280 200
281 100
282 50
283 10
284 10
285 10
286 200
287 200
288 100
289 200
290 10
291 10
292 10
293 10
294 200
295 50
296 200
297 100
298 10
299 10
300 10
301 200
302 50
303 200
304 200
305 50
306 10
307 10
308 10
309 10
310 200
311 50
312 10
313 10
314 100
315 10
316 10
317 10
318 200
319 200
320 200
321 200
322 10
323 10
324 10
325 10
326 200
327 100
328 50
329 10
330 10
331 200
332 100
333 10
334 200
335 200
336 10
337 10
338 10
339 100
340 10
341 10
342 10
343 100
344 50
345 10
346 200
347 200
348 50
349 10
350 10
351 10
352 10
353 200
354 100
355 10
356 10
357 10
358 200
359 50
360 100
361 10
362 10
363 10
364 10
365 200
366 10
367 10
368 200
369 10
370 10
371 100
372 10
373 10
374 10
375 10
376 200
377 100
378 200
379 100
380 50
381 10
DEPOT_SECTION
1
-1
EOF