Normalized Data/p03_21_normalized_splitx10_0.sol
380 -1 355 356 353 352 354 5 6 2 7 3 4 217 -31 32 342 344 343 327 325 328 329 211 213 212 -39 35 37 38 93 92 91 94 109 108 106 110 107 233 -42 40 41 230 228 231 227 232 229 -60 56 55 58 59 57 284 282 279 280 283 281 75 76 74 214 215 203 202 -64 63 62 61 239 240 243 241 242 184 185 183 187 186 188 65 -78 77 204 201 200 18 16 17 176 175 111 112 -84 83 82 28 29 30 12 13 15 14 98 95 -87 85 86 178 182 181 180 177 179 255 254 258 259 257 256 208 210 207 205 206 209 216 -96 97 9 8 271 275 272 269 273 274 270 288 292 290 291 289 -100 102 99 286 287 285 362 361 363 360 359 245 -101 67 69 68 70 71 66 304 308 303 307 305 302 306 301 300 174 104 -105 103 173 52 54 53 372 370 371 374 373 268 -114 113 195 196 197 194 198 199 250 134 135 -116 115 49 48 331 330 -117 118 119 11 10 277 278 276 -127 128 130 129 47 43 45 44 46 132 131 133 324 -136 294 293 312 310 311 309 34 33 247 246 244 248 -139 138 137 19 322 319 323 320 321 345 193 192 189 191 190 -144 141 140 143 142 378 377 369 367 368 168 -148 147 145 146 126 125 123 124 224 222 223 226 225 249 252 253 251 -151 149 150 152 73 72 20 313 315 314 316 -154 153 155 157 156 -159 158 161 160 90 88 89 366 364 365 332 -165 164 163 162 120 121 122 235 237 236 238 234 36 340 339 338 341 -169 172 170 166 171 167 298 297 295 299 296 357 -218 220 221 219 50 51 350 347 348 351 349 346 -267 376 375 79 80 81 358 -318 317 26 27 24 22 21 25 23 326 -337 335 336 334 333 266 261 265 263 264 262 260 379 380 0 





OBJ=
2923.665
BEST_KNOWN=
0.000